;symbolic execution tree
(push)
(assert (le x15 java.io.File))
(check-sat)
(push)
(assert (le x15 java.io.File))
(check-sat)
(push)
(assert (le x15 java.io.File))
(check-sat)
(pop)
(push)
(assert (not (le x15 java.io.File)))
(check-sat)
(pop)
(push)
(assert (le x8 soot.MethodSource))
(check-sat)
(pop)
(push)
(assert (not (le x8 soot.MethodSource)))
(check-sat)
(pop)
(push)
(assert (le x13 java.lang.String))
(check-sat)
(push)
(assert (le x3 java.lang.String))
(check-sat)
(pop)
(push)
(assert (not (le x3 java.lang.String)))
(check-sat)
(pop)
(pop)
(push)
(assert (not (le x13 java.lang.String)))
(check-sat)
(push)
(assert (le x9 java.lang.String))
(check-sat)
(pop)
(push)
(assert (not (le x9 java.lang.String)))
(check-sat)
(push)
(assert (le x0 java.util.zip.ZipEntry))
(check-sat)
(pop)
(push)
(assert (not (le x0 java.util.zip.ZipEntry)))
(check-sat)
(pop)
(pop)
(push)
(assert (le x0 java.lang.StringBuilder))
(check-sat)
(pop)
(push)
(assert (not (le x0 java.lang.StringBuilder)))
(check-sat)
(pop)
(push)
(assert (le x1 java.lang.String))
(check-sat)
(pop)
(push)
(assert (not (le x1 java.lang.String)))
(check-sat)
(pop)
(push)
(assert (le x9 java.lang.String))
(check-sat)
(pop)
(push)
(assert (not (le x9 java.lang.String)))
(check-sat)
(pop)
(pop)
(pop)
(push)
(assert (not (le x15 java.io.File)))
(check-sat)
(pop)
(push)
(assert (le x13 java.lang.String))
(check-sat)
(push)
(assert (le x7 java.lang.String))
(check-sat)
(push)
(assert (le x0 java.util.zip.ZipEntry))
(check-sat)
(push)
(assert (le x10 java.lang.String))
(check-sat)
(pop)
(push)
(assert (not (le x10 java.lang.String)))
(check-sat)
(pop)
(pop)
(push)
(assert (not (le x0 java.util.zip.ZipEntry)))
(check-sat)
(pop)
(pop)
(push)
(assert (not (le x7 java.lang.String)))
(check-sat)
(pop)
(push)
(assert (le x5 java.lang.String))
(check-sat)
(pop)
(push)
(assert (not (le x5 java.lang.String)))
(check-sat)
(pop)
(push)
(assert (le x5 java.lang.String))
(check-sat)
(pop)
(push)
(assert (not (le x5 java.lang.String)))
(check-sat)
(pop)
(push)
(assert (le x5 java.util.zip.ZipEntry))
(check-sat)
(pop)
(push)
(assert (not (le x5 java.util.zip.ZipEntry)))
(check-sat)
(pop)
(push)
(assert (le x10 java.lang.String))
(check-sat)
(pop)
(push)
(assert (not (le x10 java.lang.String)))
(check-sat)
(pop)
(push)
(assert (le x10 java.util.zip.ZipEntry))
(check-sat)
(pop)
(push)
(assert (not (le x10 java.util.zip.ZipEntry)))
(check-sat)
(push)
(assert (le x5 java.lang.StringBuffer))
(check-sat)
(push)
(assert (le x8 java.lang.String))
(check-sat)
(pop)
(push)
(assert (not (le x8 java.lang.String)))
(check-sat)
(pop)
(pop)
(push)
(assert (not (le x5 java.lang.StringBuffer)))
(check-sat)
(pop)
(pop)
(push)
(assert (le x1 java.lang.String))
(check-sat)
(pop)
(push)
(assert (not (le x1 java.lang.String)))
(check-sat)
(pop)
(push)
(assert (le x10 java.lang.String))
(check-sat)
(pop)
(push)
(assert (not (le x10 java.lang.String)))
(check-sat)
(push)
(assert (le x0 java.io.File))
(check-sat)
(push)
(assert (le x14 java.io.DataInputStream))
(check-sat)
(pop)
(push)
(assert (not (le x14 java.io.DataInputStream)))
(check-sat)
(pop)
(pop)
(push)
(assert (not (le x0 java.io.File)))
(check-sat)
(pop)
(push)
(assert (le x5 java.lang.String))
(check-sat)
(pop)
(push)
(assert (not (le x5 java.lang.String)))
(check-sat)
(push)
(assert (le x0 java.lang.String))
(check-sat)
(pop)
(push)
(assert (not (le x0 java.lang.String)))
(check-sat)
(pop)
(pop)
(push)
(assert (le x10 java.lang.String))
(check-sat)
(pop)
(push)
(assert (not (le x10 java.lang.String)))
(check-sat)
(pop)
(push)
(assert (le x0 java.lang.Object))
(check-sat)
(push)
(assert (le x4 java.io.File))
(check-sat)
(pop)
(push)
(assert (not (le x4 java.io.File)))
(check-sat)
(pop)
(pop)
(push)
(assert (not (le x0 java.lang.Object)))
(check-sat)
(push)
(assert (not (le x0 soot.RefType)))
(check-sat)
(pop)
(push)
(assert (le x0 soot.RefType))
(check-sat)
(pop)
(pop)
(pop)
(pop)
(push)
(assert (not (le x13 java.lang.String)))
(check-sat)
(pop)
(push)
(assert (le x13 java.util.zip.ZipEntry))
(check-sat)
(push)
(assert (le x2 java.lang.StringBuffer))
(check-sat)
(push)
(assert (le x12 java.lang.String))
(check-sat)
(pop)
(push)
(assert (not (le x12 java.lang.String)))
(check-sat)
(pop)
(pop)
(push)
(assert (not (le x2 java.lang.StringBuffer)))
(check-sat)
(push)
(assert (le x7 java.lang.String))
(check-sat)
(pop)
(push)
(assert (not (le x7 java.lang.String)))
(check-sat)
(pop)
(pop)
(push)
(assert (le x9 soot.util.HashChain_currencysign_Link))
(check-sat)
(pop)
(push)
(assert (not (le x9 soot.util.HashChain_currencysign_Link)))
(check-sat)
(pop)
(pop)
(push)
(assert (not (le x13 java.util.zip.ZipEntry)))
(check-sat)
(push)
(assert (le x15 java.io.File))
(check-sat)
(pop)
(push)
(assert (not (le x15 java.io.File)))
(check-sat)
(pop)
(push)
(assert (le x7 soot.Type))
(check-sat)
(pop)
(push)
(assert (not (le x7 soot.Type)))
(check-sat)
(pop)
(push)
(assert (le x12 java.lang.String))
(check-sat)
(pop)
(push)
(assert (not (le x12 java.lang.String)))
(check-sat)
(push)
(assert (le x8 java.util.zip.ZipEntry))
(check-sat)
(pop)
(push)
(assert (not (le x8 java.util.zip.ZipEntry)))
(check-sat)
(push)
(assert (le x15 java.io.File))
(check-sat)
(pop)
(push)
(assert (not (le x15 java.io.File)))
(check-sat)
(pop)
(pop)
(pop)
(pop)
(push)
(assert (le x15 java.io.File))
(check-sat)
(pop)
(push)
(assert (not (le x15 java.io.File)))
(check-sat)
(pop)
(push)
(assert (le x1 java.lang.String))
(check-sat)
(pop)
(push)
(assert (not (le x1 java.lang.String)))
(check-sat)
(pop)
(push)
(assert (le x7 java.util.zip.ZipEntry))
(check-sat)
(pop)
(push)
(assert (not (le x7 java.util.zip.ZipEntry)))
(check-sat)
(push)
(assert (le x1 java.lang.StringBuilder))
(check-sat)
(push)
(assert (le x5 soot.coffi.CONSTANT_Utf8_info))
(check-sat)
(pop)
(push)
(assert (not (le x5 soot.coffi.CONSTANT_Utf8_info)))
(check-sat)
(pop)
(pop)
(push)
(assert (not (le x1 java.lang.StringBuilder)))
(check-sat)
(push)
(assert (le x4 java.util.zip.ZipEntry))
(check-sat)
(pop)
(push)
(assert (not (le x4 java.util.zip.ZipEntry)))
(check-sat)
(pop)
(pop)
(push)
(assert (le x5 java.lang.String))
(check-sat)
(push)
(assert (le x10 java.lang.String))
(check-sat)
(push)
(assert (le x9 java.util.zip.ZipEntry))
(check-sat)
(pop)
(push)
(assert (not (le x9 java.util.zip.ZipEntry)))
(check-sat)
(pop)
(pop)
(push)
(assert (not (le x10 java.lang.String)))
(check-sat)
(pop)
(pop)
(push)
(assert (not (le x5 java.lang.String)))
(check-sat)
(push)
(assert (le x11 java.lang.String))
(check-sat)
(pop)
(push)
(assert (not (le x11 java.lang.String)))
(check-sat)
(push)
(assert (le x12 java.lang.String))
(check-sat)
(pop)
(push)
(assert (not (le x12 java.lang.String)))
(check-sat)
(pop)
(pop)
(pop)
(push)
(assert (le x11 java.lang.String))
(check-sat)
(pop)
(push)
(assert (not (le x11 java.lang.String)))
(check-sat)
(pop)
(pop)
(push)
(assert (le x5 java.lang.String))
(check-sat)
(push)
(assert (le x2 soot.coffi.CONSTANT_Methodref_info))
(check-sat)
(pop)
(push)
(assert (not (le x2 soot.coffi.CONSTANT_Methodref_info)))
(check-sat)
(pop)
(pop)
(push)
(assert (not (le x5 java.lang.String)))
(check-sat)
(push)
(assert (le x2 java.io.File))
(check-sat)
(push)
(assert (le x0 java.lang.String))
(check-sat)
(pop)
(push)
(assert (not (le x0 java.lang.String)))
(check-sat)
(pop)
(pop)
(push)
(assert (not (le x2 java.io.File)))
(check-sat)
(pop)
(push)
(assert (le x10 java.lang.String))
(check-sat)
(pop)
(push)
(assert (not (le x10 java.lang.String)))
(check-sat)
(pop)
(push)
(assert (le x1 java.lang.String))
(check-sat)
(push)
(assert (le x12 java.lang.String))
(check-sat)
(pop)
(push)
(assert (not (le x12 java.lang.String)))
(check-sat)
(pop)
(pop)
(push)
(assert (not (le x1 java.lang.String)))
(check-sat)
(push)
(assert (le x2 soot.util.HashChain_currencysign_Link))
(check-sat)
(pop)
(push)
(assert (not (le x2 soot.util.HashChain_currencysign_Link)))
(check-sat)
(pop)
(pop)
(pop)
(push)
(assert (le x9 java.lang.String))
(check-sat)
(push)
(assert (le x3 java.lang.String))
(check-sat)
(pop)
(push)
(assert (not (le x3 java.lang.String)))
(check-sat)
(push)
(assert (le x1 java.lang.StringBuffer))
(check-sat)
(pop)
(push)
(assert (not (le x1 java.lang.StringBuffer)))
(check-sat)
(pop)
(push)
(assert (le x8 soot.util.HashChain_currencysign_Link))
(check-sat)
(pop)
(push)
(assert (not (le x8 soot.util.HashChain_currencysign_Link)))
(check-sat)
(pop)
(pop)
(push)
(assert (le x4 java.lang.String))
(check-sat)
(push)
(assert (le x0 java.lang.String))
(check-sat)
(pop)
(push)
(assert (not (le x0 java.lang.String)))
(check-sat)
(push)
(assert (le x3 java.lang.String))
(check-sat)
(pop)
(push)
(assert (not (le x3 java.lang.String)))
(check-sat)
(pop)
(pop)
(push)
(assert (le x0 java.util.zip.ZipEntry))
(check-sat)
(pop)
(push)
(assert (not (le x0 java.util.zip.ZipEntry)))
(check-sat)
(pop)
(push)
(assert (le x7 java.util.zip.ZipEntry))
(check-sat)
(pop)
(push)
(assert (not (le x7 java.util.zip.ZipEntry)))
(check-sat)
(pop)
(push)
(assert (le x13 java.lang.String))
(check-sat)
(push)
(assert (le x5 java.io.DataInputStream))
(check-sat)
(pop)
(push)
(assert (not (le x5 java.io.DataInputStream)))
(check-sat)
(pop)
(pop)
(push)
(assert (not (le x13 java.lang.String)))
(check-sat)
(pop)
(pop)
(push)
(assert (not (le x4 java.lang.String)))
(check-sat)
(pop)
(push)
(assert (le x11 java.util.zip.ZipEntry))
(check-sat)
(pop)
(push)
(assert (not (le x11 java.util.zip.ZipEntry)))
(check-sat)
(push)
(assert (le x12 java.io.File))
(check-sat)
(pop)
(push)
(assert (not (le x12 java.io.File)))
(check-sat)
(pop)
(push)
(assert (le x2 java.lang.StringBuffer))
(check-sat)
(pop)
(push)
(assert (not (le x2 java.lang.StringBuffer)))
(check-sat)
(pop)
(pop)
(push)
(assert (le x9 java.lang.String))
(check-sat)
(push)
(assert (le x6 java.lang.String))
(check-sat)
(pop)
(push)
(assert (not (le x6 java.lang.String)))
(check-sat)
(pop)
(pop)
(push)
(assert (not (le x9 java.lang.String)))
(check-sat)
(pop)
(push)
(assert (le x3 java.lang.String))
(check-sat)
(push)
(assert (le x3 java.lang.String))
(check-sat)
(pop)
(push)
(assert (not (le x3 java.lang.String)))
(check-sat)
(pop)
(push)
(assert (le x4 java.lang.String))
(check-sat)
(pop)
(push)
(assert (not (le x4 java.lang.String)))
(check-sat)
(pop)
(pop)
(push)
(assert (not (le x3 java.lang.String)))
(check-sat)
(push)
(assert (le x13 java.lang.StringBuffer))
(check-sat)
(pop)
(push)
(assert (not (le x13 java.lang.StringBuffer)))
(check-sat)
(pop)
(pop)
(push)
(assert (le x2 java.lang.String))
(check-sat)
(pop)
(push)
(assert (not (le x2 java.lang.String)))
(check-sat)
(push)
(assert (le x13 java.lang.String))
(check-sat)
(pop)
(push)
(assert (not (le x13 java.lang.String)))
(check-sat)
(push)
(assert (le x11 java.lang.String))
(check-sat)
(pop)
(push)
(assert (not (le x11 java.lang.String)))
(check-sat)
(pop)
(push)
(assert (le x13 java.lang.String))
(check-sat)
(pop)
(push)
(assert (not (le x13 java.lang.String)))
(check-sat)
(pop)
(push)
(assert (le x12 java.lang.String))
(check-sat)
(pop)
(push)
(assert (not (le x12 java.lang.String)))
(check-sat)
(pop)
(pop)
(push)
(assert (le x15 java.io.File))
(check-sat)
(pop)
(push)
(assert (not (le x15 java.io.File)))
(check-sat)
(pop)
(pop)
(push)
(assert (le x6 java.util.zip.ZipEntry))
(check-sat)
(pop)
(push)
(assert (not (le x6 java.util.zip.ZipEntry)))
(check-sat)
(push)
(assert (le x6 java.util.zip.ZipEntry))
(check-sat)
(pop)
(push)
(assert (not (le x6 java.util.zip.ZipEntry)))
(check-sat)
(pop)
(pop)
(pop)
(push)
(assert (not (le x9 java.lang.String)))
(check-sat)
(push)
(assert (le x11 soot.coffi.Code_attribute))
(check-sat)
(pop)
(push)
(assert (not (le x11 soot.coffi.Code_attribute)))
(check-sat)
(pop)
(push)
(assert (le x7 java.util.zip.ZipEntry))
(check-sat)
(pop)
(push)
(assert (not (le x7 java.util.zip.ZipEntry)))
(check-sat)
(pop)
(push)
(assert (le x15 java.io.File))
(check-sat)
(push)
(assert (le x7 java.lang.String))
(check-sat)
(pop)
(push)
(assert (not (le x7 java.lang.String)))
(check-sat)
(push)
(assert (le x3 java.util.List))
(check-sat)
(pop)
(push)
(assert (not (le x3 java.util.List)))
(check-sat)
(pop)
(push)
(assert (le x15 java.io.File))
(check-sat)
(pop)
(push)
(assert (not (le x15 java.io.File)))
(check-sat)
(pop)
(pop)
(pop)
(push)
(assert (not (le x15 java.io.File)))
(check-sat)
(pop)
(push)
(assert (le x12 java.util.zip.ZipEntry))
(check-sat)
(pop)
(push)
(assert (not (le x12 java.util.zip.ZipEntry)))
(check-sat)
(pop)
(push)
(assert (le x6 java.lang.StringBuilder))
(check-sat)
(pop)
(push)
(assert (not (le x6 java.lang.StringBuilder)))
(check-sat)
(push)
(assert (le x6 java.lang.StringBuilder))
(check-sat)
(pop)
(push)
(assert (not (le x6 java.lang.StringBuilder)))
(check-sat)
(pop)
(pop)
(push)
(assert (le x12 java.io.File))
(check-sat)
(push)
(assert (le x6 java.io.File))
(check-sat)
(push)
(assert (le x1 java.lang.StringBuilder))
(check-sat)
(pop)
(push)
(assert (not (le x1 java.lang.StringBuilder)))
(check-sat)
(pop)
(pop)
(push)
(assert (not (le x6 java.io.File)))
(check-sat)
(push)
(assert (le x13 java.lang.String))
(check-sat)
(pop)
(push)
(assert (not (le x13 java.lang.String)))
(check-sat)
(pop)
(pop)
(pop)
(push)
(assert (not (le x12 java.io.File)))
(check-sat)
(push)
(assert (le x1 java.lang.String))
(check-sat)
(pop)
(push)
(assert (not (le x1 java.lang.String)))
(check-sat)
(pop)
(pop)
(pop)
(push)
(assert (le x6 soot.coffi.method_info))
(check-sat)
(pop)
(push)
(assert (not (le x6 soot.coffi.method_info)))
(check-sat)
(push)
(assert (le x15 java.io.File))
(check-sat)
(push)
(assert (le x1 java.lang.String))
(check-sat)
(pop)
(push)
(assert (not (le x1 java.lang.String)))
(check-sat)
(push)
(assert (le x13 java.lang.StringBuffer))
(check-sat)
(pop)
(push)
(assert (not (le x13 java.lang.StringBuffer)))
(check-sat)
(pop)
(pop)
(push)
(assert (le x2 java.util.zip.ZipEntry))
(check-sat)
(push)
(assert (le x0 java.lang.String))
(check-sat)
(pop)
(push)
(assert (not (le x0 java.lang.String)))
(check-sat)
(pop)
(pop)
(push)
(assert (not (le x2 java.util.zip.ZipEntry)))
(check-sat)
(pop)
(push)
(assert (le x0 java.lang.String))
(check-sat)
(pop)
(push)
(assert (not (le x0 java.lang.String)))
(check-sat)
(pop)
(pop)
(push)
(assert (not (le x15 java.io.File)))
(check-sat)
(pop)
(push)
(assert (le x3 java.io.DataInputStream))
(check-sat)
(push)
(assert (le x14 java.lang.String))
(check-sat)
(pop)
(push)
(assert (not (le x14 java.lang.String)))
(check-sat)
(push)
(assert (le x6 soot.coffi.method_info))
(check-sat)
(pop)
(push)
(assert (not (le x6 soot.coffi.method_info)))
(check-sat)
(pop)
(pop)
(push)
(assert (le x8 java.lang.String))
(check-sat)
(pop)
(push)
(assert (not (le x8 java.lang.String)))
(check-sat)
(pop)
(push)
(assert (le x13 java.lang.String))
(check-sat)
(pop)
(push)
(assert (not (le x13 java.lang.String)))
(check-sat)
(push)
(assert (le x6 soot.coffi.method_info))
(check-sat)
(pop)
(push)
(assert (not (le x6 soot.coffi.method_info)))
(check-sat)
(pop)
(push)
(assert (le x3 java.io.DataInputStream))
(check-sat)
(pop)
(push)
(assert (not (le x3 java.io.DataInputStream)))
(check-sat)
(pop)
(pop)
(push)
(assert (le x4 java.util.zip.ZipEntry))
(check-sat)
(pop)
(push)
(assert (not (le x4 java.util.zip.ZipEntry)))
(check-sat)
(pop)
(pop)
(push)
(assert (not (le x3 java.io.DataInputStream)))
(check-sat)
(pop)
(push)
(assert (le x13 java.util.zip.ZipEntry))
(check-sat)
(push)
(assert (le x7 java.io.File))
(check-sat)
(pop)
(push)
(assert (not (le x7 java.io.File)))
(check-sat)
(pop)
(pop)
(push)
(assert (not (le x13 java.util.zip.ZipEntry)))
(check-sat)
(push)
(assert (le x0 soot.coffi.CONSTANT_Integer_info))
(check-sat)
(pop)
(push)
(assert (not (le x0 soot.coffi.CONSTANT_Integer_info)))
(check-sat)
(pop)
(pop)
(push)
(assert (le x13 java.lang.String))
(check-sat)
(pop)
(push)
(assert (not (le x13 java.lang.String)))
(check-sat)
(pop)
(pop)
(push)
(assert (le x1 java.lang.String))
(check-sat)
(push)
(assert (le x14 java.lang.String))
(check-sat)
(pop)
(push)
(assert (not (le x14 java.lang.String)))
(check-sat)
(pop)
(push)
(assert (le x0 java.io.File))
(check-sat)
(push)
(assert (le x5 java.io.File))
(check-sat)
(pop)
(push)
(assert (not (le x5 java.io.File)))
(check-sat)
(pop)
(push)
(assert (le x2 java.util.List))
(check-sat)
(pop)
(push)
(assert (not (le x2 java.util.List)))
(check-sat)
(pop)
(pop)
(push)
(assert (not (le x0 java.io.File)))
(check-sat)
(pop)
(push)
(assert (le x10 java.lang.StringBuilder))
(check-sat)
(push)
(assert (le x2 java.lang.String))
(check-sat)
(pop)
(push)
(assert (not (le x2 java.lang.String)))
(check-sat)
(pop)
(pop)
(push)
(assert (not (le x10 java.lang.StringBuilder)))
(check-sat)
(push)
(assert (le x12 java.io.File))
(check-sat)
(pop)
(push)
(assert (not (le x12 java.io.File)))
(check-sat)
(pop)
(push)
(assert (le x0 java.lang.String))
(check-sat)
(push)
(assert (le x10 java.lang.StringBuilder))
(check-sat)
(pop)
(push)
(assert (not (le x10 java.lang.StringBuilder)))
(check-sat)
(pop)
(pop)
(push)
(assert (not (le x0 java.lang.String)))
(check-sat)
(push)
(assert (le x10 java.lang.StringBuilder))
(check-sat)
(pop)
(push)
(assert (not (le x10 java.lang.StringBuilder)))
(check-sat)
(pop)
(pop)
(pop)
(push)
(assert (le x12 java.io.File))
(check-sat)
(pop)
(push)
(assert (not (le x12 java.io.File)))
(check-sat)
(pop)
(pop)
(push)
(assert (not (le x1 java.lang.String)))
(check-sat)
(push)
(assert (le x2 java.io.File))
(check-sat)
(pop)
(push)
(assert (not (le x2 java.io.File)))
(check-sat)
(pop)
(push)
(assert (le x2 java.io.File))
(check-sat)
(pop)
(push)
(assert (not (le x2 java.io.File)))
(check-sat)
(push)
(assert (le x3 java.lang.StringBuffer))
(check-sat)
(pop)
(push)
(assert (not (le x3 java.lang.StringBuffer)))
(check-sat)
(pop)
(pop)
(pop)
(pop)
(push)
(assert (not (le x15 java.io.File)))
(check-sat)
(push)
(assert (le x9 java.io.File))
(check-sat)
(push)
(assert (le x10 java.io.File))
(check-sat)
(pop)
(push)
(assert (not (le x10 java.io.File)))
(check-sat)
(pop)
(pop)
(push)
(assert (not (le x9 java.io.File)))
(check-sat)
(pop)
(pop)
